169
1000
259
11
17
39
236
369
334
103
164
309
112
684
162
523
7
236
677
295
893
187
208
1
468
716
761
344
266
647
6
117
238
726
404
374
5
54
89
654
851
385
195
393
179
683
223
344
107
21
55
208
331
3
80
423
150
440
221
158
770
983
176
97
458
570
455
144
40
3
733
269
217
701
885
191
175
215
287
634
650
994
165
515
979
36
265
661
244
124
51
907
700
176
125
183
414
469
673
461
93
63
595
84
139
52
418
67
66
446
284
63
300
632
195
205
405
821
339
95
96
346
373
372
189
170
545
188
647
52
224
997
988
799
451
549
12
627
656
99
705
115
727
911
162
527
267
32
763
272
629
745
123
590
234
143
586
208
94
783
936
64
64
6
353
122
904
433
268
543
9
